Geographic Exponential Decay
20 135 225 197 238 107 172 216 162 287 14 278 244 192 134 59 102 304 62 138 212
p edge 320 1250
e 0 248 1.0
e 0 163 1.0
e 1 206 1.0
e 1 65 6.0
e 2 281 12.0
e 2 150 4.0
e 2 165 12.0
e 2 192 53.0
e 2 177 12.0
e 2 158 13.0
e 2 129 3.0
e 2 276 21.0
e 2 189 9.0
e 2 302 11.0
e 3 31 1.0
e 3 214 1.0
e 4 214 2.0
e 4 19 2.0
e 5 147 2.0
e 5 145 3.0
e 6 43 1.0
e 6 110 6.0
e 7 139 9.0
e 7 51 3.0
e 8 31 5.0
e 8 293 1.0
e 8 132 1.0
e 9 283 4.0
e 9 296 1.0
e 10 90 22.0
e 10 64 6.0
e 10 193 20.0
e 10 111 24.0
e 10 27 5.0
e 10 112 16.0
e 10 3 1.0
e 10 315 21.0
e 10 230 6.0
e 10 250 2.0
e 11 204 7.0
e 11 214 2.0
e 12 159 5.0
e 12 150 1.0
e 13 297 1.0
e 13 285 5.0
e 13 89 2.0
e 14 5 56.0
e 14 53 2.0
e 14 178 71.0
e 14 316 91.0
e 14 105 98.0
e 14 150 78.0
e 14 190 8.0
e 14 226 87.0
e 14 50 26.0
e 14 51 9.0
e 14 170 98.0
e 14 37 26.0
e 14 148 65.0
e 14 47 80.0
e 14 257 84.0
e 14 306 32.0
e 14 218 60.0
e 14 13 27.0
e 14 4 88.0
e 14 276 74.0
e 14 24 92.0
e 14 25 86.0
e 14 123 76.0
e 14 121 81.0
e 14 149 2.0
e 14 260 5.0
e 14 141 74.0
e 14 204 21.0
e 14 158 78.0
e 14 99 52.0
e 14 29 52.0
e 14 311 18.0
e 14 26 22.0
e 14 55 11.0
e 14 191 47.0
e 14 153 7.0
e 14 274 82.0
e 15 229 2.0
e 15 258 12.0
e 15 123 2.0
e 15 213 8.0
e 15 253 3.0
e 16 116 7.0
e 16 70 21.0
e 16 129 4.0
e 16 113 3.0
e 16 84 6.0
e 17 132 2.0
e 17 273 2.0
e 18 10 9.0
e 18 62 26.0
e 19 178 5.0
e 20 82 3.0
e 20 31 26.0
e 20 248 13.0
e 20 87 13.0
e 20 299 37.0
e 20 124 25.0
e 20 15 24.0
e 20 257 50.0
e 20 69 39.0
e 20 251 48.0
e 20 86 13.0
e 20 96 21.0
e 20 145 50.0
e 20 190 26.0
e 20 243 27.0
e 20 221 3.0
e 20 109 26.0
e 20 315 24.0
e 20 76 14.0
e 21 215 13.0
e 21 115 41.0
e 21 75 34.0
e 21 308 49.0
e 21 229 37.0
e 21 259 13.0
e 21 101 3.0
e 21 195 34.0
e 21 250 36.0
e 21 167 30.0
e 21 97 25.0
e 21 132 10.0
e 21 105 24.0
e 21 244 12.0
e 21 306 11.0
e 21 48 2.0
e 21 54 26.0
e 21 216 53.0
e 21 36 33.0
e 22 59 26.0
e 22 182 6.0
e 22 145 1.0
e 23 193 1.0
e 23 135 32.0
e 24 260 13.0
e 24 254 13.0
e 24 47 8.0
e 24 253 9.0
e 24 95 24.0
e 24 290 5.0
e 24 213 22.0
e 24 49 19.0
e 24 109 3.0
e 25 285 1.0
e 26 104 50.0
e 26 316 18.0
e 26 214 44.0
e 26 218 1.0
e 26 194 28.0
e 26 265 9.0
e 26 157 10.0
e 26 290 14.0
e 26 263 35.0
e 26 204 9.0
e 26 163 27.0
e 26 89 24.0
e 26 103 21.0
e 26 222 15.0
e 26 285 45.0
e 26 254 24.0
e 26 105 42.0
e 26 109 23.0
e 27 57 2.0
e 27 29 2.0
e 28 212 77.0
e 28 286 2.0
e 29 80 9.0
e 29 171 9.0
e 29 76 6.0
e 30 56 4.0
e 30 267 10.0
e 30 190 7.0
e 30 269 6.0
e 30 26 11.0
e 32 241 5.0
e 32 112 8.0
e 32 25 10.0
e 32 305 15.0
e 32 180 9.0
e 33 80 1.0
e 33 291 1.0
e 34 94 6.0
e 34 302 2.0
e 34 222 2.0
e 34 238 1.0
e 34 76 5.0
e 35 293 1.0
e 35 54 4.0
e 36 175 1.0
e 36 102 91.0
e 36 37 12.0
e 36 169 21.0
e 36 273 24.0
e 36 168 13.0
e 36 55 14.0
e 36 72 2.0
e 36 4 21.0
e 37 171 4.0
e 38 307 1.0
e 38 257 2.0
e 38 210 7.0
e 39 305 17.0
e 39 226 1.0
e 39 162 62.0
e 39 219 10.0
e 39 254 3.0
e 40 187 1.0
e 40 243 6.0
e 40 206 2.0
e 41 276 6.0
e 41 210 2.0
e 42 316 3.0
e 42 210 10.0
e 43 26 39.0
e 44 36 10.0
e 44 302 2.0
e 45 257 1.0
e 45 255 11.0
e 45 29 24.0
e 45 3 14.0
e 45 59 75.0
e 45 266 1.0
e 45 0 7.0
e 45 202 17.0
e 45 302 2.0
e 45 90 4.0
e 46 48 5.0
e 46 148 1.0
e 46 286 6.0
e 47 92 4.0
e 49 273 1.0
e 50 62 72.0
e 50 299 1.0
e 52 303 12.0
e 52 63 2.0
e 53 247 1.0
e 54 222 1.0
e 55 68 2.0
e 56 209 2.0
e 57 188 1.0
e 58 173 12.0
e 58 4 2.0
e 59 152 2.0
e 59 303 1.0
e 59 125 63.0
e 59 115 35.0
e 59 137 6.0
e 59 56 2.0
e 59 286 73.0
e 59 178 94.0
e 59 51 47.0
e 59 168 21.0
e 59 280 62.0
e 59 9 99.0
e 59 157 37.0
e 59 23 64.0
e 59 239 49.0
e 59 116 6.0
e 59 60 47.0
e 59 251 41.0
e 59 26 78.0
e 59 44 82.0
e 59 95 70.0
e 59 257 45.0
e 59 153 64.0
e 59 160 21.0
e 59 278 82.0
e 59 89 91.0
e 59 161 49.0
e 59 15 28.0
e 59 315 80.0
e 59 112 57.0
e 59 318 20.0
e 59 264 52.0
e 59 140 25.0
e 59 198 39.0
e 59 139 83.0
e 60 108 5.0
e 60 94 11.0
e 61 168 1.0
e 61 247 1.0
e 62 83 7.0
e 62 195 99.0
e 62 164 82.0
e 62 245 68.0
e 62 135 80.0
e 62 23 79.0
e 62 2 44.0
e 62 167 33.0
e 62 54 47.0
e 62 16 84.0
e 62 263 26.0
e 62 139 23.0
e 62 181 70.0
e 62 246 96.0
e 62 259 79.0
e 62 239 42.0
e 62 3 24.0
e 62 97 28.0
e 62 85 90.0
e 62 177 61.0
e 62 154 81.0
e 62 297 38.0
e 62 252 15.0
e 62 182 42.0
e 62 160 54.0
e 62 90 32.0
e 62 134 74.0
e 62 82 80.0
e 62 206 37.0
e 62 284 52.0
e 62 255 74.0
e 62 208 73.0
e 62 137 17.0
e 62 117 1.0
e 62 287 72.0
e 63 100 2.0
e 64 293 3.0
e 64 291 4.0
e 65 213 3.0
e 65 199 5.0
e 66 252 1.0
e 66 29 12.0
e 67 22 3.0
e 67 152 1.0
e 68 306 2.0
e 68 64 1.0
e 69 207 19.0
e 69 288 12.0
e 69 292 13.0
e 69 51 19.0
e 69 307 18.0
e 69 108 2.0
e 69 294 12.0
e 69 182 15.0
e 69 287 5.0
e 70 183 17.0
e 70 118 21.0
e 70 114 22.0
e 70 24 6.0
e 70 50 5.0
e 70 194 9.0
e 70 184 24.0
e 70 96 8.0
e 70 160 23.0
e 71 103 2.0
e 71 31 2.0
e 72 139 1.0
e 72 318 6.0
e 72 39 6.0
e 72 158 10.0
e 73 182 2.0
e 73 87 1.0
e 74 240 9.0
e 74 288 3.0
e 74 48 4.0
e 74 121 11.0
e 74 68 2.0
e 75 9 2.0
e 77 16 7.0
e 77 137 1.0
e 78 278 53.0
e 78 316 1.0
e 78 238 17.0
e 79 269 4.0
e 79 216 52.0
e 79 169 11.0
e 79 43 7.0
e 79 26 41.0
e 81 242 1.0
e 81 209 1.0
e 83 196 1.0
e 84 0 1.0
e 85 198 4.0
e 86 107 31.0
e 88 258 1.0
e 88 96 2.0
e 91 195 9.0
e 91 263 11.0
e 92 48 1.0
e 93 230 1.0
e 93 174 19.0
e 94 64 2.0
e 94 87 3.0
e 94 256 9.0
e 97 151 1.0
e 98 208 7.0
e 98 130 13.0
e 98 254 6.0
e 98 306 12.0
e 98 85 8.0
e 99 106 1.0
e 99 76 7.0
e 99 114 3.0
e 99 317 12.0
e 100 136 4.0
e 101 181 1.0
e 102 153 19.0
e 102 8 21.0
e 102 258 79.0
e 102 18 14.0
e 102 168 98.0
e 102 119 40.0
e 102 299 28.0
e 102 292 12.0
e 102 120 28.0
e 102 13 17.0
e 102 228 8.0
e 102 211 56.0
e 102 57 84.0
e 102 35 46.0
e 102 40 11.0
e 102 44 34.0
e 102 172 100.0
e 102 253 94.0
e 102 41 51.0
e 102 308 92.0
e 102 217 82.0
e 102 70 19.0
e 102 264 81.0
e 102 216 33.0
e 102 218 27.0
e 102 6 21.0
e 102 87 75.0
e 102 263 27.0
e 102 132 76.0
e 102 169 37.0
e 102 306 89.0
e 102 15 59.0
e 102 293 70.0
e 102 212 11.0
e 102 118 66.0
e 102 38 31.0
e 104 253 18.0
e 104 184 12.0
e 104 303 15.0
e 104 223 1.0
e 104 81 1.0
e 104 48 11.0
e 104 314 3.0
e 104 12 22.0
e 104 274 11.0
e 106 174 22.0
e 107 137 29.0
e 107 309 56.0
e 107 115 92.0
e 107 59 56.0
e 107 87 26.0
e 107 27 33.0
e 107 288 56.0
e 107 207 46.0
e 107 198 70.0
e 107 297 70.0
e 107 133 29.0
e 107 189 93.0
e 107 268 53.0
e 107 258 22.0
e 107 287 95.0
e 107 79 62.0
e 107 308 78.0
e 107 108 5.0
e 107 217 49.0
e 107 50 21.0
e 107 56 11.0
e 107 224 37.0
e 107 218 7.0
e 107 236 20.0
e 107 104 78.0
e 107 276 37.0
e 107 71 59.0
e 107 185 45.0
e 107 190 76.0
e 107 111 55.0
e 107 118 42.0
e 107 148 56.0
e 107 88 41.0
e 107 186 88.0
e 107 112 93.0
e 107 230 10.0
e 109 294 14.0
e 109 175 3.0
e 109 287 12.0
e 109 125 6.0
e 109 272 16.0
e 109 151 11.0
e 109 216 37.0
e 110 32 12.0
e 110 278 44.0
e 111 178 4.0
e 113 267 1.0
e 116 207 4.0
e 117 142 7.0
e 117 92 1.0
e 118 122 8.0
e 118 264 11.0
e 119 267 9.0
e 119 287 21.0
e 119 74 2.0
e 119 219 1.0
e 120 269 8.0
e 120 245 1.0
e 121 264 4.0
e 122 307 6.0
e 122 129 4.0
e 124 41 1.0
e 126 54 3.0
e 126 98 7.0
e 126 10 18.0
e 127 89 2.0
e 127 195 10.0
e 128 249 1.0
e 128 287 25.0
e 128 184 2.0
e 130 69 8.0
e 130 71 22.0
e 130 109 23.0
e 130 115 19.0
e 130 203 21.0
e 130 105 4.0
e 130 304 69.0
e 130 292 10.0
e 130 301 20.0
e 131 185 5.0
e 131 254 1.0
e 133 143 2.0
e 134 281 85.0
e 134 300 18.0
e 134 0 27.0
e 134 115 76.0
e 134 210 19.0
e 134 19 6.0
e 134 302 95.0
e 134 206 35.0
e 134 143 75.0
e 134 246 97.0
e 134 312 55.0
e 134 52 64.0
e 134 148 23.0
e 134 278 9.0
e 134 53 13.0
e 134 44 7.0
e 134 5 73.0
e 134 292 83.0
e 134 164 82.0
e 134 296 35.0
e 134 89 37.0
e 134 308 75.0
e 134 94 20.0
e 134 11 77.0
e 134 183 32.0
e 134 133 23.0
e 134 60 8.0
e 134 186 70.0
e 134 85 23.0
e 134 268 8.0
e 134 271 82.0
e 134 42 94.0
e 134 61 95.0
e 134 63 31.0
e 134 139 90.0
e 134 156 97.0
e 135 264 24.0
e 135 76 30.0
e 135 87 82.0
e 135 134 81.0
e 135 301 47.0
e 135 259 10.0
e 135 122 100.0
e 135 300 65.0
e 135 285 65.0
e 135 181 44.0
e 135 111 12.0
e 135 68 100.0
e 135 56 99.0
e 135 84 62.0
e 135 298 30.0
e 135 276 14.0
e 135 311 21.0
e 135 261 25.0
e 135 287 5.0
e 135 316 84.0
e 135 274 31.0
e 135 45 76.0
e 135 192 16.0
e 135 222 1.0
e 135 94 82.0
e 135 8 84.0
e 135 257 66.0
e 135 244 27.0
e 135 169 70.0
e 135 31 21.0
e 135 279 17.0
e 135 137 63.0
e 135 218 54.0
e 135 38 3.0
e 135 229 5.0
e 136 240 5.0
e 136 69 20.0
e 138 199 67.0
e 138 300 69.0
e 138 74 91.0
e 138 97 69.0
e 138 54 35.0
e 138 154 44.0
e 138 316 1.0
e 138 113 39.0
e 138 272 82.0
e 138 303 24.0
e 138 36 61.0
e 138 258 68.0
e 138 71 81.0
e 138 304 58.0
e 138 281 55.0
e 138 168 61.0
e 138 211 2.0
e 138 216 75.0
e 138 318 54.0
e 138 76 82.0
e 138 67 82.0
e 138 50 22.0
e 138 110 35.0
e 138 305 100.0
e 138 37 5.0
e 138 254 11.0
e 138 212 6.0
e 138 80 29.0
e 138 91 71.0
e 138 53 10.0
e 138 75 40.0
e 138 270 78.0
e 138 65 63.0
e 138 123 61.0
e 138 182 56.0
e 138 271 24.0
e 138 101 73.0
e 140 281 3.0
e 141 62 73.0
e 142 100 12.0
e 142 56 1.0
e 142 296 11.0
e 142 222 4.0
e 144 155 9.0
e 144 316 2.0
e 144 253 1.0
e 144 101 12.0
e 144 255 8.0
e 146 287 46.0
e 146 277 3.0
e 147 285 2.0
e 149 241 2.0
e 155 46 2.0
e 156 187 3.0
e 156 81 2.0
e 159 46 1.0
e 159 4 1.0
e 161 317 1.0
e 162 226 33.0
e 162 200 94.0
e 162 28 6.0
e 162 213 66.0
e 162 245 11.0
e 162 209 5.0
e 162 96 53.0
e 162 177 57.0
e 162 143 90.0
e 162 282 49.0
e 162 147 33.0
e 162 24 39.0
e 162 272 5.0
e 162 41 5.0
e 162 3 66.0
e 162 32 77.0
e 162 51 67.0
e 162 137 70.0
e 162 303 64.0
e 162 94 90.0
e 162 68 55.0
e 162 141 27.0
e 162 17 99.0
e 162 98 50.0
e 162 254 38.0
e 162 146 60.0
e 162 199 53.0
e 162 149 64.0
e 162 55 41.0
e 162 156 88.0
e 162 108 18.0
e 162 25 59.0
e 162 240 24.0
e 162 40 11.0
e 162 145 95.0
e 162 127 99.0
e 165 244 96.0
e 165 202 6.0
e 166 134 6.0
e 166 164 5.0
e 166 139 3.0
e 166 175 19.0
e 166 279 7.0
e 167 240 1.0
e 169 1 8.0
e 170 200 1.0
e 171 148 5.0
e 172 21 3.0
e 172 298 71.0
e 172 235 91.0
e 172 63 66.0
e 172 251 9.0
e 172 242 26.0
e 172 141 93.0
e 172 111 100.0
e 172 252 70.0
e 172 191 26.0
e 172 104 31.0
e 172 32 80.0
e 172 115 44.0
e 172 193 13.0
e 172 72 66.0
e 172 151 78.0
e 172 236 25.0
e 172 41 90.0
e 172 268 64.0
e 172 184 8.0
e 172 112 70.0
e 172 182 22.0
e 172 162 35.0
e 172 219 90.0
e 172 173 39.0
e 172 5 2.0
e 172 241 52.0
e 172 58 75.0
e 172 92 88.0
e 172 126 37.0
e 172 142 56.0
e 172 97 90.0
e 172 209 1.0
e 172 146 45.0
e 172 17 64.0
e 172 166 23.0
e 173 11 9.0
e 173 187 19.0
e 173 274 22.0
e 173 98 11.0
e 173 291 9.0
e 173 276 5.0
e 173 141 18.0
e 173 232 9.0
e 174 133 11.0
e 174 87 8.0
e 174 287 85.0
e 174 125 12.0
e 174 210 10.0
e 174 212 3.0
e 174 200 13.0
e 174 211 12.0
e 175 131 3.0
e 175 211 3.0
e 175 111 10.0
e 175 31 23.0
e 175 71 2.0
e 175 118 6.0
e 175 162 46.0
e 176 278 9.0
e 176 48 6.0
e 176 146 20.0
e 176 318 25.0
e 176 61 40.0
e 176 194 16.0
e 176 143 10.0
e 176 284 38.0
e 176 145 39.0
e 176 173 43.0
e 176 309 9.0
e 176 4 29.0
e 176 298 9.0
e 176 66 33.0
e 176 42 28.0
e 176 113 20.0
e 176 5 48.0
e 176 51 37.0
e 176 235 24.0
e 179 318 1.0
e 179 233 1.0
e 180 45 19.0
e 183 267 3.0
e 185 63 1.0
e 186 86 9.0
e 186 88 8.0
e 186 137 3.0
e 186 23 15.0
e 186 305 7.0
e 186 239 12.0
e 186 56 11.0
e 186 128 10.0
e 188 127 1.0
e 191 58 4.0
e 192 291 95.0
e 192 49 52.0
e 192 142 94.0
e 192 107 73.0
e 192 73 75.0
e 192 279 93.0
e 192 50 80.0
e 192 270 31.0
e 192 256 62.0
e 192 249 51.0
e 192 24 21.0
e 192 245 19.0
e 192 280 94.0
e 192 144 2.0
e 192 79 31.0
e 192 41 13.0
e 192 62 2.0
e 192 31 10.0
e 192 72 85.0
e 192 238 40.0
e 192 182 15.0
e 192 318 62.0
e 192 116 69.0
e 192 112 65.0
e 192 125 46.0
e 192 18 86.0
e 192 11 35.0
e 192 306 44.0
e 192 113 58.0
e 192 0 69.0
e 192 171 23.0
e 192 122 82.0
e 192 124 50.0
e 192 22 3.0
e 192 55 100.0
e 195 59 52.0
e 196 181 3.0
e 197 125 84.0
e 197 189 99.0
e 197 269 83.0
e 197 5 91.0
e 197 198 98.0
e 197 100 83.0
e 197 148 73.0
e 197 94 38.0
e 197 286 10.0
e 197 61 35.0
e 197 190 67.0
e 197 78 26.0
e 197 278 50.0
e 197 139 55.0
e 197 201 21.0
e 197 135 39.0
e 197 140 13.0
e 197 280 34.0
e 197 161 96.0
e 197 108 87.0
e 197 106 3.0
e 197 307 74.0
e 197 302 27.0
e 197 176 97.0
e 197 49 30.0
e 197 225 50.0
e 197 222 52.0
e 197 191 24.0
e 197 248 13.0
e 197 56 24.0
e 197 117 61.0
e 197 182 84.0
e 197 77 14.0
e 197 270 49.0
e 197 239 20.0
e 197 233 10.0
e 197 228 10.0
e 198 131 22.0
e 198 238 94.0
e 198 34 5.0
e 198 98 19.0
e 198 61 27.0
e 198 36 21.0
e 198 32 4.0
e 198 9 38.0
e 198 158 45.0
e 198 289 1.0
e 198 35 24.0
e 198 110 26.0
e 198 37 8.0
e 198 159 50.0
e 198 69 40.0
e 200 42 3.0
e 200 296 23.0
e 200 127 6.0
e 200 157 18.0
e 200 256 6.0
e 200 65 16.0
e 200 50 24.0
e 201 65 25.0
e 201 199 23.0
e 201 176 42.0
e 201 33 13.0
e 201 246 4.0
e 201 306 16.0
e 201 140 4.0
e 201 29 24.0
e 201 271 3.0
e 203 247 1.0
e 203 108 3.0
e 204 103 11.0
e 204 146 8.0
e 205 97 1.0
e 205 301 1.0
e 205 165 2.0
e 208 36 3.0
e 212 219 35.0
e 212 59 35.0
e 212 10 89.0
e 212 140 16.0
e 212 122 85.0
e 212 183 86.0
e 212 175 7.0
e 212 96 51.0
e 212 29 39.0
e 212 313 47.0
e 212 267 29.0
e 212 247 35.0
e 212 15 41.0
e 212 120 46.0
e 212 30 90.0
e 212 104 81.0
e 212 125 100.0
e 212 43 89.0
e 212 159 22.0
e 212 272 61.0
e 212 152 9.0
e 212 37 36.0
e 212 227 26.0
e 212 132 35.0
e 212 5 59.0
e 212 240 73.0
e 212 24 79.0
e 212 167 93.0
e 212 256 80.0
e 212 97 70.0
e 212 126 28.0
e 212 31 57.0
e 212 22 52.0
e 215 6 2.0
e 216 60 84.0
e 216 174 52.0
e 216 0 72.0
e 216 206 8.0
e 216 301 27.0
e 216 240 18.0
e 216 38 44.0
e 216 107 44.0
e 216 188 69.0
e 216 178 83.0
e 216 259 51.0
e 216 137 4.0
e 216 28 26.0
e 216 208 29.0
e 216 95 50.0
e 216 185 89.0
e 216 162 82.0
e 216 215 69.0
e 216 163 72.0
e 216 291 27.0
e 216 121 64.0
e 216 112 53.0
e 216 151 30.0
e 216 244 31.0
e 216 71 2.0
e 216 294 90.0
e 216 260 25.0
e 216 14 52.0
e 216 100 71.0
e 216 92 48.0
e 216 199 33.0
e 216 93 56.0
e 220 246 2.0
e 220 279 1.0
e 221 136 12.0
e 221 131 4.0
e 221 258 11.0
e 221 266 7.0
e 223 83 1.0
e 223 189 1.0
e 224 209 1.0
e 225 201 35.0
e 225 84 37.0
e 225 241 79.0
e 225 180 52.0
e 225 52 49.0
e 225 232 18.0
e 225 304 12.0
e 225 114 80.0
e 225 76 10.0
e 225 285 2.0
e 225 28 55.0
e 225 57 66.0
e 225 226 81.0
e 225 32 3.0
e 225 272 14.0
e 225 2 16.0
e 225 140 43.0
e 225 227 77.0
e 225 136 85.0
e 225 80 34.0
e 225 37 9.0
e 225 26 68.0
e 225 61 76.0
e 225 148 50.0
e 225 156 72.0
e 225 38 49.0
e 225 188 50.0
e 225 271 70.0
e 225 143 27.0
e 225 67 75.0
e 225 300 59.0
e 225 106 6.0
e 225 39 84.0
e 225 204 32.0
e 225 316 41.0
e 225 165 61.0
e 231 76 2.0
e 231 247 2.0
e 232 3 18.0
e 232 141 19.0
e 232 283 1.0
e 232 106 12.0
e 232 214 18.0
e 232 249 18.0
e 232 186 7.0
e 232 291 25.0
e 234 15 11.0
e 234 116 1.0
e 234 76 4.0
e 235 94 5.0
e 235 212 73.0
e 235 232 9.0
e 236 288 3.0
e 237 5 1.0
e 237 52 1.0
e 238 27 31.0
e 238 252 4.0
e 238 196 44.0
e 238 105 30.0
e 238 312 58.0
e 238 126 51.0
e 238 259 27.0
e 238 88 18.0
e 238 224 79.0
e 238 157 59.0
e 238 148 60.0
e 238 67 65.0
e 238 168 34.0
e 238 305 40.0
e 238 281 13.0
e 238 297 60.0
e 238 194 93.0
e 238 175 11.0
e 238 247 86.0
e 238 255 29.0
e 238 268 41.0
e 238 171 92.0
e 238 293 51.0
e 238 294 5.0
e 238 228 52.0
e 238 130 61.0
e 238 218 10.0
e 238 50 20.0
e 238 162 18.0
e 238 136 62.0
e 238 201 24.0
e 238 0 14.0
e 238 21 51.0
e 244 278 40.0
e 244 170 56.0
e 244 132 42.0
e 244 293 60.0
e 244 303 56.0
e 244 84 27.0
e 244 108 97.0
e 244 169 67.0
e 244 298 4.0
e 244 26 23.0
e 244 54 22.0
e 244 175 51.0
e 244 46 71.0
e 244 305 93.0
e 244 240 70.0
e 244 79 93.0
e 244 257 51.0
e 244 61 10.0
e 244 23 84.0
e 244 86 60.0
e 244 220 57.0
e 244 130 32.0
e 244 270 55.0
e 244 247 66.0
e 244 2 96.0
e 244 99 77.0
e 244 217 78.0
e 244 204 42.0
e 244 226 68.0
e 244 120 73.0
e 244 74 79.0
e 244 10 84.0
e 244 308 4.0
e 260 89 4.0
e 260 225 63.0
e 261 316 4.0
e 261 132 1.0
e 262 185 4.0
e 262 31 1.0
e 263 136 1.0
e 265 107 42.0
e 265 125 5.0
e 269 232 10.0
e 270 22 24.0
e 270 199 18.0
e 270 292 9.0
e 270 93 14.0
e 270 256 24.0
e 270 6 4.0
e 271 301 9.0
e 275 226 1.0
e 275 317 1.0
e 275 9 3.0
e 277 118 2.0
e 278 237 3.0
e 278 260 67.0
e 278 229 60.0
e 278 242 65.0
e 278 3 77.0
e 278 27 85.0
e 278 4 49.0
e 278 160 97.0
e 278 73 97.0
e 278 204 7.0
e 278 273 90.0
e 278 178 77.0
e 278 89 24.0
e 278 170 35.0
e 278 33 55.0
e 278 252 82.0
e 278 141 59.0
e 278 8 92.0
e 278 191 66.0
e 278 152 62.0
e 278 86 60.0
e 278 200 72.0
e 278 157 74.0
e 278 120 78.0
e 278 20 17.0
e 278 246 13.0
e 278 102 69.0
e 278 309 64.0
e 278 209 74.0
e 278 68 65.0
e 282 107 44.0
e 283 191 2.0
e 284 25 9.0
e 284 294 12.0
e 284 122 3.0
e 287 231 65.0
e 287 148 10.0
e 287 230 38.0
e 287 28 46.0
e 287 232 96.0
e 287 275 48.0
e 287 63 33.0
e 287 127 67.0
e 287 305 93.0
e 287 268 1.0
e 287 73 20.0
e 287 70 59.0
e 287 122 87.0
e 287 255 28.0
e 287 144 50.0
e 287 211 100.0
e 287 130 86.0
e 287 8 8.0
e 287 126 97.0
e 287 0 27.0
e 287 237 47.0
e 287 118 90.0
e 287 21 33.0
e 287 195 97.0
e 287 269 51.0
e 287 280 33.0
e 287 262 61.0
e 287 206 87.0
e 288 85 1.0
e 289 2 12.0
e 289 27 4.0
e 295 150 1.0
e 295 139 7.0
e 304 286 67.0
e 304 54 74.0
e 304 182 8.0
e 304 158 32.0
e 304 206 61.0
e 304 80 51.0
e 304 205 85.0
e 304 103 66.0
e 304 154 50.0
e 304 13 8.0
e 304 55 67.0
e 304 263 71.0
e 304 42 5.0
e 304 252 52.0
e 304 131 83.0
e 304 12 53.0
e 304 116 77.0
e 304 253 35.0
e 304 32 80.0
e 304 163 63.0
e 304 14 81.0
e 304 289 92.0
e 304 144 4.0
e 304 91 38.0
e 304 186 38.0
e 304 233 41.0
e 304 132 87.0
e 304 170 18.0
e 304 51 53.0
e 304 185 39.0
e 304 129 96.0
e 304 290 69.0
e 304 96 13.0
e 304 25 29.0
e 305 6 6.0
e 305 251 17.0
e 305 26 15.0
e 310 286 1.0
e 310 133 2.0
e 313 275 3.0
e 314 119 1.0
e 318 108 5.0
e 318 167 18.0
e 318 319 24.0
e 318 128 2.0
e 319 167 9.0
e 319 111 9.0
e 319 286 4.0
e 319 310 1.0
